solution status: optimal solution found
objective value:                             6.111294
VV626                                               1 	(obj:0.808229)
VV625                                               1 	(obj:0.515061)
VV617                                               1 	(obj:0.502796)
VV616                                               1 	(obj:0.750942)
VV320                                               1 	(obj:0)
VV322                                               1 	(obj:0)
VV612                                               1 	(obj:0.525196)
VV611                                               1 	(obj:0.63289)
VV339                                               1 	(obj:0)
VV340                                               1 	(obj:0)
VV347                                               1 	(obj:0)
VV351                                               1 	(obj:0)
VV354                                               1 	(obj:0)
VV605                                               1 	(obj:0.502796)
VV360                                               1 	(obj:0)
VV604                                               1 	(obj:0.862908)
VV408                                               1 	(obj:0)
VV410                                               1 	(obj:0)
VV427                                               1 	(obj:0)
VV428                                               1 	(obj:0)
VV435                                               1 	(obj:0)
VV439                                               1 	(obj:0)
VV448                                               1 	(obj:0)
VV565                                               1 	(obj:0.50276)
VV587                                               1 	(obj:0.507716)
VV361                                               2 	(obj:0)
VV346                                               2 	(obj:0)
VV300                                               2 	(obj:0)
VV476                                            2000 	(obj:0)
VV522                                            2000 	(obj:0)
VV523                                            1830 	(obj:0)
VV496                                            1828 	(obj:0)
VV527                                            1890 	(obj:0)
VV530                                            1000 	(obj:0)
VV515                                            1605 	(obj:0)
VV536                                            1450 	(obj:0)
VV537                                            2000 	(obj:0)
VV528                                            1824 	(obj:0)
VV540                                           20300 	(obj:0)
VV516                                            1430 	(obj:0)
VV498                                            1443 	(obj:0)
